\* ILP_model *\
Minimize
Objective_Function: sv_0 + sv_1 + sv_2 + sv_3 + sv_4 + sv_5 + sv_6 + sv_7
 + sv_a + sv_acc.01 + sv_add + sv_add7 + sv_arrayidx + sv_arrayidx2
 + sv_arrayidx4 + sv_arrayidx6 + sv_b + sv_c + sv_cmp + sv_d + sv_i.02
 + sv_inc + sv_mul + sv_sub + svbr_for.body + svcst__acc.01_0 + svcst__cmp_0
 + svcst__i.02_0 + svcst__inc_0 + svret_for.end + svssink_0 + svssink_1
 + svssink_2 + svssrc_0 + svssrc_1 + svssrc_2
Subject To
c1: - sv_i.02 + sv_inc >= 1
c10: - sv_6 + sv_arrayidx6 >= 1
c100: sv_0 - sv_2 >= 1
c101: sv_add - sv_inc >= 1
c102: - sv_add + sv_add7 >= 1
c103: sv_4 - sv_6 >= 1
c104: sv_2 - sv_4 >= 1
c105: sv_0 - sv_2 >= 1
c106: sv_add - sv_inc >= 1
c107: - sv_add + sv_add7 >= 1
c108: sv_4 - sv_6 >= 1
c109: sv_2 - sv_4 >= 1
c11: - sv_cmp + svbr_for.body >= 1
c110: sv_0 - sv_2 >= 1
c111: sv_add - sv_inc >= 1
c112: - sv_add + sv_add7 >= 1
c113: sv_4 - sv_6 >= 1
c114: sv_2 - sv_4 >= 1
c115: sv_0 - sv_2 >= 1
c116: sv_add - sv_inc >= 1
c117: - sv_add + sv_add7 >= 1
c118: sv_4 - sv_6 >= 1
c119: sv_2 - sv_4 >= 1
c12: sv_1 - sv_arrayidx >= 1
c120: sv_0 - sv_2 >= 1
c121: sv_add - sv_inc >= 1
c122: - sv_add + sv_add7 >= 1
c123: sv_4 - sv_6 >= 1
c124: sv_2 - sv_4 >= 1
c125: sv_0 - sv_2 >= 1
c126: sv_add - sv_inc >= 1
c127: - sv_add + sv_add7 >= 1
c128: sv_4 - sv_6 >= 1
c129: sv_2 - sv_4 >= 1
c13: sv_3 - sv_arrayidx2 >= 1
c130: sv_0 - sv_2 >= 1
c131: sv_add - sv_inc >= 1
c132: - sv_add + sv_add7 >= 1
c133: sv_4 - sv_6 >= 1
c134: sv_2 - sv_4 >= 1
c135: sv_0 - sv_2 >= 1
c136: sv_add - sv_inc >= 1
c137: - sv_add + sv_add7 >= 1
c138: sv_4 - sv_6 >= 1
c139: sv_2 - sv_4 >= 1
c14: sv_5 - sv_arrayidx4 >= 1
c140: sv_0 - sv_2 >= 1
c141: sv_add - sv_inc >= 1
c142: - sv_add + sv_add7 >= 1
c143: sv_4 - sv_6 >= 1
c144: sv_2 - sv_4 >= 1
c145: sv_0 - sv_2 >= 1
c146: sv_add - sv_inc >= 1
c147: - sv_add + sv_add7 >= 1
c148: sv_4 - sv_6 >= 1
c149: sv_2 - sv_4 >= 1
c15: sv_7 - sv_arrayidx6 >= 1
c150: sv_0 - sv_2 >= 1
c151: sv_add - sv_inc >= 1
c152: - sv_add + sv_add7 >= 1
c153: sv_4 - sv_6 >= 1
c154: sv_2 - sv_4 >= 1
c155: sv_0 - sv_2 >= 1
c156: sv_add - sv_inc >= 1
c157: - sv_add + sv_add7 >= 1
c158: sv_4 - sv_6 >= 1
c159: sv_2 - sv_4 >= 1
c16: - svbr_for.body + svssink_1 >= 0
c160: sv_0 - sv_2 >= 1
c161: sv_add - sv_inc >= 1
c162: - sv_add + sv_add7 >= 1
c163: sv_4 - sv_6 >= 1
c164: sv_2 - sv_4 >= 1
c165: sv_0 - sv_2 >= 1
c166: sv_add - sv_inc >= 1
c167: - sv_add + sv_add7 >= 1
c168: sv_4 - sv_6 >= 1
c169: sv_2 - sv_4 >= 1
c17: - sv_1 + sv_mul >= 1
c170: sv_0 - sv_2 >= 1
c171: sv_add - sv_inc >= 1
c172: - sv_add + sv_add7 >= 1
c173: sv_4 - sv_6 >= 1
c174: sv_2 - sv_4 >= 1
c175: sv_0 - sv_2 >= 1
c176: sv_add - sv_inc >= 1
c177: - sv_add + sv_add7 >= 1
c178: sv_4 - sv_6 >= 1
c179: sv_2 - sv_4 >= 1
c18: - sv_3 + sv_mul >= 1
c180: sv_0 - sv_2 >= 1
c19: - sv_5 + sv_sub >= 1
c2: sv_0 - sv_i.02 >= 1
c20: - sv_7 + sv_add >= 1
c21: - sv_mul + sv_sub >= 4
c22: sv_add - sv_sub >= 1
c23: - sv_add + sv_add7 >= 1
c24: - sv_add7 + svssink_1 >= 1
c25: - sv_acc.01 + sv_add7 >= 1
c26: sv_i.02 - svcst__i.02_0 >= 0
c27: sv_acc.01 - svcst__acc.01_0 >= 0
c28: sv_inc - svcst__inc_0 >= 0
c29: sv_cmp - svcst__cmp_0 >= 0
c3: sv_2 - sv_i.02 >= 1
c30: - svret_for.end + svssink_2 >= 1
c31: - sv_a + svssink_0 >= 1
c32: - sv_b + svssink_0 >= 1
c33: - sv_c + svssink_0 >= 1
c34: - sv_d + svssink_0 >= 1
c35: svret_for.end - svssrc_2 >= 0
c36: sv_a - svssrc_0 >= 0
c37: sv_b - svssrc_0 >= 0
c38: sv_c - svssrc_0 >= 0
c39: sv_d - svssrc_0 >= 0
c4: sv_4 - sv_i.02 >= 1
c40: svcst__i.02_0 - svssrc_1 >= 0
c41: svcst__acc.01_0 - svssrc_1 >= 0
c42: svcst__inc_0 - svssrc_1 >= 0
c43: svcst__cmp_0 - svssrc_1 >= 0
c44: sv_i.02 - sv_inc >= -4
c45: sv_acc.01 - sv_add7 >= -4
c46: sv_add - sv_inc >= 1
c47: - sv_add + sv_add7 >= 1
c48: sv_4 - sv_6 >= 1
c49: sv_2 - sv_4 >= 1
c5: sv_6 - sv_i.02 >= 1
c50: sv_0 - sv_2 >= 1
c51: sv_add - sv_inc >= 1
c52: - sv_add + sv_add7 >= 1
c53: sv_4 - sv_6 >= 1
c54: sv_2 - sv_4 >= 1
c55: sv_0 - sv_2 >= 1
c56: sv_add - sv_inc >= 1
c57: - sv_add + sv_add7 >= 1
c58: sv_4 - sv_6 >= 1
c59: sv_2 - sv_4 >= 1
c6: sv_cmp - sv_inc >= 1
c60: sv_0 - sv_2 >= 1
c61: sv_add - sv_inc >= 1
c62: - sv_add + sv_add7 >= 1
c63: sv_4 - sv_6 >= 1
c64: sv_2 - sv_4 >= 1
c65: sv_0 - sv_2 >= 1
c66: sv_add - sv_inc >= 1
c67: - sv_add + sv_add7 >= 1
c68: sv_4 - sv_6 >= 1
c69: sv_2 - sv_4 >= 1
c7: - sv_0 + sv_arrayidx >= 1
c70: sv_0 - sv_2 >= 1
c71: sv_add - sv_inc >= 1
c72: - sv_add + sv_add7 >= 1
c73: sv_4 - sv_6 >= 1
c74: sv_2 - sv_4 >= 1
c75: sv_0 - sv_2 >= 1
c76: sv_add - sv_inc >= 1
c77: - sv_add + sv_add7 >= 1
c78: sv_4 - sv_6 >= 1
c79: sv_2 - sv_4 >= 1
c8: - sv_2 + sv_arrayidx2 >= 1
c80: sv_0 - sv_2 >= 1
c81: sv_add - sv_inc >= 1
c82: - sv_add + sv_add7 >= 1
c83: sv_4 - sv_6 >= 1
c84: sv_2 - sv_4 >= 1
c85: sv_0 - sv_2 >= 1
c86: sv_add - sv_inc >= 1
c87: - sv_add + sv_add7 >= 1
c88: sv_4 - sv_6 >= 1
c89: sv_2 - sv_4 >= 1
c9: - sv_4 + sv_arrayidx4 >= 1
c90: sv_0 - sv_2 >= 1
c91: sv_add - sv_inc >= 1
c92: - sv_add + sv_add7 >= 1
c93: sv_4 - sv_6 >= 1
c94: sv_2 - sv_4 >= 1
c95: sv_0 - sv_2 >= 1
c96: sv_add - sv_inc >= 1
c97: - sv_add + sv_add7 >= 1
c98: sv_4 - sv_6 >= 1
c99: sv_2 - sv_4 >= 1
Bounds
 sv_0 free
 sv_1 free
 sv_2 free
 sv_3 free
 sv_4 free
 sv_5 free
 sv_6 free
 sv_7 free
 sv_a free
 sv_acc.01 free
 sv_add free
 sv_add7 free
 sv_arrayidx free
 sv_arrayidx2 free
 sv_arrayidx4 free
 sv_arrayidx6 free
 sv_b free
 sv_c free
 sv_cmp free
 sv_d free
 sv_i.02 free
 sv_inc free
 sv_mul free
 sv_sub free
 svbr_for.body free
 svcst__acc.01_0 free
 svcst__cmp_0 free
 svcst__i.02_0 free
 svcst__inc_0 free
 svret_for.end free
 svssink_0 free
 svssink_1 free
 svssink_2 free
 0 <= svssrc_0
 0 <= svssrc_1
 0 <= svssrc_2
Generals
sv_0
sv_1
sv_2
sv_3
sv_4
sv_5
sv_6
sv_7
sv_a
sv_acc.01
sv_add
sv_add7
sv_arrayidx
sv_arrayidx2
sv_arrayidx4
sv_arrayidx6
sv_b
sv_c
sv_cmp
sv_d
sv_i.02
sv_inc
sv_mul
sv_sub
svbr_for.body
svcst__acc.01_0
svcst__cmp_0
svcst__i.02_0
svcst__inc_0
svret_for.end
svssink_0
svssink_1
svssink_2
svssrc_0
svssrc_1
svssrc_2
End
